p tw 77 89
1 2
2 13
3 4
3 26
4 5
5 6
5 56
6 71
7 8
8 9
9 10
10 11
11 12
12 14
13 24
14 15
15 16
16 17
16 18
17 74
18 19
19 20
20 21
21 22
22 23
23 25
24 35
25 26
26 27
27 28
27 31
28 29
29 30
30 31
30 33
31 32
32 74
33 34
34 36
35 46
36 37
37 38
38 39
39 40
40 41
41 42
42 43
43 44
44 45
45 47
46 57
47 48
48 49
48 66
49 50
49 66
50 51
51 52
52 53
52 66
53 54
54 55
55 56
56 58
57 68
57 7
58 59
58 64
59 60
60 61
60 64
61 62
62 63
63 64
63 66
64 65
65 74
66 67
67 69
68 76
69 70
70 18
71 72
72 73
73 74
74 75
76 77
76 15
77 3
